# Input/Output
IO.Title Bulk Si 4096 atoms relax
IO.Coordinates si_888.xtl
IO.WriteOutToFile F
IO.Iprint 1

# General Parameters
General.NumberOfSpecies 2

%block ChemicalSpeciesLabel
1  28.0850   Si_SZ
2  28.0850   P_SZ
%endblock

%block Si_SZ
Atom.InvSRange 8.0
%endblock
%block P_SZ
Atom.InvSRange 8.0
%endblock

# Moving Atoms
AtomMove.TypeOfRun static

Grid.GridCutoff 400

# Finding the density matrix
DM.SolutionMethod ordern
DM.L_range 20.0
minE.MixedLSelfConsistent T
minE.LTolerance 1e-8
#DM.SolutionMethod diagon
#Diag.MPMesh T
#Diag.MPMeshX 1
#Diag.MPMeshY 1
#Diag.MPMeshZ 1
